\ Model SSLP_15_45_5
\ LP format - for model browsing. Use MPS format to capture full model detail.
Minimize
  40 x_1 + 70 x_2 + 63 x_3 + 45 x_4 + 66 x_5 + 64 x_6 + 51 x_7 + 40 x_8
   + 70 x_9 + 70 x_10 + 45 x_11 + 71 x_12 + 56 x_13 + 60 x_14 + 43 x_15
   - 4 y_1_2 - 5 y_1_3 - 22 y_1_4 - y_1_5 - 20 y_1_6 - 10 y_1_7 - 23 y_1_8
   - 9 y_1_9 - 17 y_1_10 - 3 y_1_11 - 22 y_1_12 - 4 y_1_13 - 2 y_1_14
   - 19 y_1_15 - 21 y_2_1 - 2 y_2_2 - 14 y_2_3 - 19 y_2_4 - 2 y_2_5
   - 21 y_2_6 - 16 y_2_7 - 4 y_2_8 - 9 y_2_9 - 23 y_2_10 - 2 y_2_11
   - 17 y_2_12 - 3 y_2_13 - 24 y_2_14 - 11 y_2_15 - 4 y_3_1 - 19 y_3_2
   - 3 y_3_3 - 25 y_3_4 - 4 y_3_6 - 12 y_3_7 - 10 y_3_8 - y_3_9 - 8 y_3_10
   - 15 y_3_11 - 10 y_3_12 - 25 y_3_13 - 3 y_3_14 - 22 y_3_15 - 20 y_4_1
   - 11 y_4_2 - 10 y_4_3 - 20 y_4_4 - 20 y_4_5 - 20 y_4_6 - 6 y_4_7
   - 21 y_4_8 - 12 y_4_9 - 4 y_4_10 - 20 y_4_11 - y_4_12 - 4 y_4_13
   - 7 y_4_14 - 20 y_4_15 - 2 y_5_1 - 9 y_5_2 - 2 y_5_3 - 8 y_5_4
   - 21 y_5_5 - 5 y_5_6 - 4 y_5_7 - 23 y_5_8 - 4 y_5_9 - 24 y_5_10
   - 8 y_5_11 - 7 y_5_12 - 6 y_5_13 - 21 y_5_14 - 20 y_5_15 - 7 y_6_1
   - 14 y_6_2 - 5 y_6_3 - 6 y_6_4 - 6 y_6_5 - 15 y_6_6 - 14 y_6_7
   - 21 y_6_8 - 10 y_6_9 - 20 y_6_10 - 23 y_6_11 - 22 y_6_12 - 25 y_6_13
   - 2 y_6_14 - 4 y_6_15 - 8 y_7_1 - 17 y_7_2 - 16 y_7_3 - 7 y_7_4
   - 8 y_7_5 - 5 y_7_6 - 17 y_7_7 - 10 y_7_8 - 4 y_7_9 - 19 y_7_10
   - 16 y_7_11 - 7 y_7_12 - 5 y_7_13 - 23 y_7_14 - 2 y_7_15 - 21 y_8_2
   - 17 y_8_3 - 15 y_8_4 - 14 y_8_5 - 14 y_8_6 - 12 y_8_7 - 17 y_8_8
   - 13 y_8_9 - 6 y_8_10 - 21 y_8_11 - 2 y_8_12 - 3 y_8_13 - 10 y_8_14
   - y_8_15 - 23 y_9_1 - 17 y_9_2 - 8 y_9_3 - 6 y_9_4 - 8 y_9_5 - 6 y_9_6
   - 19 y_9_7 - 23 y_9_8 - 13 y_9_9 - 7 y_9_10 - 2 y_9_11 - 16 y_9_12
   - 5 y_9_13 - 18 y_9_14 - 20 y_9_15 - 8 y_10_1 - 3 y_10_2 - 24 y_10_3
   - y_10_5 - 20 y_10_7 - 21 y_10_8 - 24 y_10_9 - 13 y_10_10 - 12 y_10_11
   - 21 y_10_12 - 5 y_10_13 - 21 y_10_14 - 19 y_10_15 - 19 y_11_1
   - 25 y_11_2 - 17 y_11_3 - 9 y_11_4 - 10 y_11_5 - 10 y_11_6 - 16 y_11_7
   - 2 y_11_8 - 10 y_11_9 - 21 y_11_10 - 12 y_11_11 - 18 y_11_12
   - 16 y_11_13 - 24 y_11_14 - 22 y_11_15 - 8 y_12_1 - 4 y_12_2 - 12 y_12_3
   - 17 y_12_4 - 2 y_12_5 - 15 y_12_6 - 12 y_12_7 - 19 y_12_8 - 13 y_12_9
   - 13 y_12_10 - 14 y_12_11 - 22 y_12_12 - 9 y_12_13 - y_12_14
   - 16 y_12_15 - 2 y_13_1 - 5 y_13_2 - 2 y_13_3 - 19 y_13_4 - 22 y_13_5
   - 4 y_13_6 - 5 y_13_7 - 12 y_13_8 - 22 y_13_9 - 5 y_13_10 - 6 y_13_11
   - 5 y_13_12 - 24 y_13_13 - 19 y_13_14 - 22 y_13_15 - 14 y_14_1
   - 13 y_14_2 - 20 y_14_3 - 10 y_14_4 - 7 y_14_5 - 10 y_14_6 - 19 y_14_7
   - 15 y_14_8 - 14 y_14_9 - 11 y_14_10 - 24 y_14_11 - 4 y_14_12
   - 24 y_14_13 - 20 y_14_14 - 7 y_14_15 - 18 y_15_1 - 16 y_15_2
   - 12 y_15_3 - 13 y_15_4 - 12 y_15_5 - 5 y_15_6 - 6 y_15_7 - y_15_8
   - 23 y_15_9 - 5 y_15_10 - 3 y_15_11 - 16 y_15_12 - 6 y_15_13 - 7 y_15_14
   - 17 y_15_15 - 15 y_16_1 - 14 y_16_2 - 15 y_16_3 - 20 y_16_4 - 14 y_16_5
   - 18 y_16_6 - 12 y_16_7 - 2 y_16_8 - 15 y_16_9 - 10 y_16_10 - 4 y_16_11
   - 14 y_16_12 - y_16_13 - 7 y_16_14 - 22 y_16_15 - 17 y_17_1 - 14 y_17_2
   - 9 y_17_3 - 2 y_17_4 - 15 y_17_5 - 9 y_17_6 - 4 y_17_7 - 20 y_17_9
   - 6 y_17_10 - 6 y_17_11 - 17 y_17_12 - 3 y_17_13 - 4 y_17_14
   - 13 y_17_15 - 2 y_18_1 - 13 y_18_2 - 14 y_18_3 - 21 y_18_4 - 17 y_18_5
   - y_18_6 - 14 y_18_7 - 7 y_18_8 - 19 y_18_9 - 25 y_18_10 - 9 y_18_11
   - 25 y_18_12 - 16 y_18_13 - 8 y_18_14 - 8 y_18_15 - 11 y_19_1
   - 19 y_19_2 - y_19_3 - 14 y_19_4 - 23 y_19_5 - 7 y_19_6 - 19 y_19_7
   - 4 y_19_8 - 8 y_19_9 - 22 y_19_10 - 21 y_19_11 - y_19_12 - 10 y_19_13
   - 13 y_19_14 - 14 y_19_15 - 4 y_20_1 - 3 y_20_2 - 16 y_20_3 - 20 y_20_4
   - 4 y_20_5 - 12 y_20_6 - 23 y_20_7 - 13 y_20_8 - 14 y_20_9 - 7 y_20_10
   - 20 y_20_11 - 13 y_20_12 - 25 y_20_13 - 22 y_20_14 - 19 y_20_15
   - 18 y_21_1 - 25 y_21_2 - 5 y_21_3 - 4 y_21_4 - 20 y_21_5 - 22 y_21_6
   - 22 y_21_7 - 25 y_21_9 - 21 y_21_10 - 5 y_21_11 - 9 y_21_12
   - 24 y_21_13 - 23 y_21_14 - 5 y_21_15 - 16 y_22_1 - 20 y_22_2
   - 17 y_22_3 - 5 y_22_4 - 22 y_22_5 - y_22_6 - 2 y_22_7 - 19 y_22_8
   - 16 y_22_9 - 5 y_22_10 - 20 y_22_11 - 25 y_22_12 - 10 y_22_14
   - 14 y_22_15 - 2 y_23_1 - 16 y_23_2 - 15 y_23_3 - 24 y_23_4 - 7 y_23_5
   - 9 y_23_6 - 4 y_23_7 - 6 y_23_8 - 9 y_23_9 - 9 y_23_10 - 5 y_23_11
   - 2 y_23_12 - y_23_13 - 22 y_23_14 - 15 y_24_1 - 22 y_24_2 - 10 y_24_3
   - 3 y_24_4 - 10 y_24_5 - 22 y_24_6 - 14 y_24_7 - y_24_8 - 2 y_24_9
   - 12 y_24_10 - 17 y_24_11 - 19 y_24_12 - 8 y_24_13 - 17 y_24_14
   - 22 y_24_15 - 15 y_25_1 - 6 y_25_2 - 4 y_25_3 - 22 y_25_4 - 12 y_25_5
   - 18 y_25_6 - 7 y_25_7 - 17 y_25_8 - 13 y_25_9 - 15 y_25_10 - 21 y_25_11
   - 22 y_25_12 - 24 y_25_13 - 6 y_25_14 - 3 y_25_15 - 21 y_26_1 - 4 y_26_2
   - 22 y_26_3 - 7 y_26_4 - 13 y_26_5 - 9 y_26_6 - 18 y_26_7 - 8 y_26_8
   - 12 y_26_9 - 23 y_26_10 - 5 y_26_11 - 24 y_26_12 - 9 y_26_13
   - 20 y_26_14 - 19 y_26_15 - 17 y_27_1 - 18 y_27_2 - 12 y_27_3
   - 12 y_27_4 - 5 y_27_5 - 10 y_27_6 - 18 y_27_7 - 13 y_27_8 - 22 y_27_9
   - 7 y_27_10 - 16 y_27_11 - 23 y_27_12 - 12 y_27_13 - 13 y_27_14
   - 20 y_27_15 - 6 y_28_1 - 19 y_28_2 - 13 y_28_3 - 21 y_28_4 - 17 y_28_5
   - 21 y_28_6 - 6 y_28_7 - 8 y_28_8 - 15 y_28_9 - 18 y_28_10 - 5 y_28_11
   - 25 y_28_12 - 12 y_28_13 - 3 y_28_14 - 6 y_28_15 - 16 y_29_1
   - 11 y_29_2 - 7 y_29_3 - 18 y_29_4 - 14 y_29_5 - 20 y_29_6 - 21 y_29_7
   - 15 y_29_8 - 12 y_29_9 - 3 y_29_10 - 21 y_29_11 - 5 y_29_12
   - 14 y_29_13 - 11 y_29_14 - 23 y_29_15 - 16 y_30_1 - 21 y_30_2
   - 19 y_30_3 - 9 y_30_4 - 2 y_30_5 - 18 y_30_6 - 3 y_30_7 - 8 y_30_8
   - 2 y_30_9 - 14 y_30_10 - 19 y_30_11 - 9 y_30_12 - 7 y_30_13
   - 24 y_30_14 - 7 y_30_15 - 7 y_31_1 - 10 y_31_2 - 8 y_31_3 - 7 y_31_4
   - 23 y_31_5 - y_31_6 - 18 y_31_7 - 22 y_31_8 - 7 y_31_9 - 7 y_31_10
   - 17 y_31_11 - 2 y_31_12 - 23 y_31_13 - 12 y_31_14 - 13 y_31_15
   - 14 y_32_1 - 7 y_32_2 - 23 y_32_3 - 3 y_32_4 - y_32_5 - 8 y_32_6
   - 16 y_32_7 - 21 y_32_8 - 13 y_32_9 - 7 y_32_10 - y_32_11 - 9 y_32_12
   - 12 y_32_13 - 12 y_32_14 - 4 y_32_15 - 20 y_33_1 - y_33_2 - 11 y_33_3
   - 8 y_33_4 - 20 y_33_5 - 24 y_33_6 - 24 y_33_7 - 18 y_33_8 - 2 y_33_9
   - 15 y_33_10 - 3 y_33_11 - 15 y_33_12 - 13 y_33_14 - 22 y_33_15
   - 24 y_34_1 - 4 y_34_2 - 19 y_34_3 - 8 y_34_4 - 15 y_34_5 - 9 y_34_6
   - 2 y_34_7 - 25 y_34_8 - 3 y_34_9 - 12 y_34_10 - 7 y_34_11 - 14 y_34_12
   - 13 y_34_13 - 19 y_34_14 - 20 y_34_15 - 10 y_35_1 - 4 y_35_2
   - 16 y_35_3 - 7 y_35_4 - 2 y_35_5 - 21 y_35_6 - 17 y_35_7 - 17 y_35_8
   - 21 y_35_9 - 17 y_35_10 - y_35_11 - 25 y_35_12 - 17 y_35_13 - 3 y_35_14
   - 24 y_35_15 - 7 y_36_1 - 14 y_36_2 - 12 y_36_3 - 7 y_36_4 - 18 y_36_5
   - 5 y_36_6 - 6 y_36_7 - 4 y_36_8 - 10 y_36_9 - 22 y_36_10 - 12 y_36_11
   - 3 y_36_12 - 24 y_36_13 - 18 y_36_14 - 8 y_36_15 - 18 y_37_1 - 8 y_37_2
   - 12 y_37_3 - 13 y_37_4 - y_37_5 - 21 y_37_6 - 3 y_37_7 - 6 y_37_8
   - 10 y_37_9 - 10 y_37_10 - 21 y_37_12 - 7 y_37_13 - 4 y_37_14
   - 16 y_37_15 - 22 y_38_1 - 19 y_38_2 - 20 y_38_3 - 19 y_38_4 - 18 y_38_5
   - 2 y_38_6 - 6 y_38_7 - 18 y_38_8 - 19 y_38_9 - 20 y_38_10 - 9 y_38_11
   - 10 y_38_12 - 13 y_38_13 - 17 y_38_14 - 9 y_38_15 - 18 y_39_1
   - 15 y_39_2 - 21 y_39_3 - 8 y_39_4 - 12 y_39_6 - 19 y_39_7 - 14 y_39_8
   - 3 y_39_9 - 5 y_39_10 - 5 y_39_11 - 18 y_39_12 - 21 y_39_14
   - 21 y_39_15 - 11 y_40_1 - 7 y_40_2 - 6 y_40_3 - 12 y_40_4 - 5 y_40_5
   - 11 y_40_6 - 7 y_40_7 - 23 y_40_8 - 10 y_40_9 - 4 y_40_10 - 15 y_40_11
   - 11 y_40_12 - 19 y_40_13 - 4 y_40_14 - 23 y_40_15 - 5 y_41_1 - 9 y_41_2
   - 4 y_41_3 - 24 y_41_4 - 13 y_41_5 - 19 y_41_6 - 11 y_41_7 - 21 y_41_9
   - 14 y_41_10 - 3 y_41_11 - 19 y_41_12 - 2 y_41_13 - 21 y_41_14
   - 8 y_41_15 - 12 y_42_1 - 23 y_42_2 - 9 y_42_3 - 12 y_42_4 - 2 y_42_5
   - 23 y_42_6 - 8 y_42_7 - 11 y_42_8 - 18 y_42_9 - 14 y_42_10 - 6 y_42_11
   - 8 y_42_12 - 12 y_42_13 - 24 y_42_14 - 7 y_42_15 - 16 y_43_1 - 8 y_43_2
   - 4 y_43_3 - 3 y_43_5 - 11 y_43_6 - y_43_7 - 7 y_43_8 - 5 y_43_9
   - 3 y_43_10 - 17 y_43_11 - 18 y_43_13 - 12 y_43_14 - 21 y_43_15
   - 17 y_44_1 - 14 y_44_2 - 6 y_44_3 - 2 y_44_4 - 12 y_44_5 - 13 y_44_6
   - 14 y_44_7 - 17 y_44_8 - 13 y_44_9 - 18 y_44_10 - 10 y_44_11
   - 23 y_44_12 - 2 y_44_13 - 15 y_44_14 - 16 y_44_15 - y_45_1 - y_45_2
   - 11 y_45_3 - 6 y_45_4 - 4 y_45_5 - 14 y_45_6 - 4 y_45_7 - 12 y_45_8
   - 10 y_45_9 - 3 y_45_10 - 18 y_45_11 - 17 y_45_12 - 21 y_45_13
   - 8 y_45_14 - y_45_15 + 1000 x_1_0 + 1000 x_2_0 + 1000 x_3_0
   + 1000 x_4_0 + 1000 x_5_0 + 1000 x_6_0 + 1000 x_7_0 + 1000 x_8_0
   + 1000 x_9_0 + 1000 x_10_0 + 1000 x_11_0 + 1000 x_12_0 + 1000 x_13_0
   + 1000 x_14_0 + 1000 x_15_0
Subject To
 c1: - x_1 - x_2 - x_3 - x_4 - x_5 - x_6 - x_7 - x_8 - x_9 - x_10 - x_11
   - x_12 - x_13 - x_14 - x_15 >= -15
 c2: 112 x_1 - 21 y_2_1 - 4 y_3_1 - 20 y_4_1 - 2 y_5_1 - 7 y_6_1 - 8 y_7_1
   - 23 y_9_1 - 8 y_10_1 - 19 y_11_1 - 8 y_12_1 - 2 y_13_1 - 14 y_14_1
   - 18 y_15_1 - 15 y_16_1 - 17 y_17_1 - 2 y_18_1 - 11 y_19_1 - 4 y_20_1
   - 18 y_21_1 - 16 y_22_1 - 2 y_23_1 - 15 y_24_1 - 15 y_25_1 - 21 y_26_1
   - 17 y_27_1 - 6 y_28_1 - 16 y_29_1 - 16 y_30_1 - 7 y_31_1 - 14 y_32_1
   - 20 y_33_1 - 24 y_34_1 - 10 y_35_1 - 7 y_36_1 - 18 y_37_1 - 22 y_38_1
   - 18 y_39_1 - 11 y_40_1 - 5 y_41_1 - 12 y_42_1 - 16 y_43_1 - 17 y_44_1
   - y_45_1 + x_1_0 >= 0
 c3: 112 x_2 - 4 y_1_2 - 2 y_2_2 - 19 y_3_2 - 11 y_4_2 - 9 y_5_2 - 14 y_6_2
   - 17 y_7_2 - 21 y_8_2 - 17 y_9_2 - 3 y_10_2 - 25 y_11_2 - 4 y_12_2
   - 5 y_13_2 - 13 y_14_2 - 16 y_15_2 - 14 y_16_2 - 14 y_17_2 - 13 y_18_2
   - 19 y_19_2 - 3 y_20_2 - 25 y_21_2 - 20 y_22_2 - 16 y_23_2 - 22 y_24_2
   - 6 y_25_2 - 4 y_26_2 - 18 y_27_2 - 19 y_28_2 - 11 y_29_2 - 21 y_30_2
   - 10 y_31_2 - 7 y_32_2 - y_33_2 - 4 y_34_2 - 4 y_35_2 - 14 y_36_2
   - 8 y_37_2 - 19 y_38_2 - 15 y_39_2 - 7 y_40_2 - 9 y_41_2 - 23 y_42_2
   - 8 y_43_2 - 14 y_44_2 - y_45_2 + x_2_0 >= 0
 c4: 112 x_3 - 5 y_1_3 - 14 y_2_3 - 3 y_3_3 - 10 y_4_3 - 2 y_5_3 - 5 y_6_3
   - 16 y_7_3 - 17 y_8_3 - 8 y_9_3 - 24 y_10_3 - 17 y_11_3 - 12 y_12_3
   - 2 y_13_3 - 20 y_14_3 - 12 y_15_3 - 15 y_16_3 - 9 y_17_3 - 14 y_18_3
   - y_19_3 - 16 y_20_3 - 5 y_21_3 - 17 y_22_3 - 15 y_23_3 - 10 y_24_3
   - 4 y_25_3 - 22 y_26_3 - 12 y_27_3 - 13 y_28_3 - 7 y_29_3 - 19 y_30_3
   - 8 y_31_3 - 23 y_32_3 - 11 y_33_3 - 19 y_34_3 - 16 y_35_3 - 12 y_36_3
   - 12 y_37_3 - 20 y_38_3 - 21 y_39_3 - 6 y_40_3 - 4 y_41_3 - 9 y_42_3
   - 4 y_43_3 - 6 y_44_3 - 11 y_45_3 + x_3_0 >= 0
 c5: 112 x_4 - 22 y_1_4 - 19 y_2_4 - 25 y_3_4 - 20 y_4_4 - 8 y_5_4
   - 6 y_6_4 - 7 y_7_4 - 15 y_8_4 - 6 y_9_4 - 9 y_11_4 - 17 y_12_4
   - 19 y_13_4 - 10 y_14_4 - 13 y_15_4 - 20 y_16_4 - 2 y_17_4 - 21 y_18_4
   - 14 y_19_4 - 20 y_20_4 - 4 y_21_4 - 5 y_22_4 - 24 y_23_4 - 3 y_24_4
   - 22 y_25_4 - 7 y_26_4 - 12 y_27_4 - 21 y_28_4 - 18 y_29_4 - 9 y_30_4
   - 7 y_31_4 - 3 y_32_4 - 8 y_33_4 - 8 y_34_4 - 7 y_35_4 - 7 y_36_4
   - 13 y_37_4 - 19 y_38_4 - 8 y_39_4 - 12 y_40_4 - 24 y_41_4 - 12 y_42_4
   - 2 y_44_4 - 6 y_45_4 + x_4_0 >= 0
 c6: 112 x_5 - y_1_5 - 2 y_2_5 - 20 y_4_5 - 21 y_5_5 - 6 y_6_5 - 8 y_7_5
   - 14 y_8_5 - 8 y_9_5 - y_10_5 - 10 y_11_5 - 2 y_12_5 - 22 y_13_5
   - 7 y_14_5 - 12 y_15_5 - 14 y_16_5 - 15 y_17_5 - 17 y_18_5 - 23 y_19_5
   - 4 y_20_5 - 20 y_21_5 - 22 y_22_5 - 7 y_23_5 - 10 y_24_5 - 12 y_25_5
   - 13 y_26_5 - 5 y_27_5 - 17 y_28_5 - 14 y_29_5 - 2 y_30_5 - 23 y_31_5
   - y_32_5 - 20 y_33_5 - 15 y_34_5 - 2 y_35_5 - 18 y_36_5 - y_37_5
   - 18 y_38_5 - 5 y_40_5 - 13 y_41_5 - 2 y_42_5 - 3 y_43_5 - 12 y_44_5
   - 4 y_45_5 + x_5_0 >= 0
 c7: 112 x_6 - 20 y_1_6 - 21 y_2_6 - 4 y_3_6 - 20 y_4_6 - 5 y_5_6
   - 15 y_6_6 - 5 y_7_6 - 14 y_8_6 - 6 y_9_6 - 10 y_11_6 - 15 y_12_6
   - 4 y_13_6 - 10 y_14_6 - 5 y_15_6 - 18 y_16_6 - 9 y_17_6 - y_18_6
   - 7 y_19_6 - 12 y_20_6 - 22 y_21_6 - y_22_6 - 9 y_23_6 - 22 y_24_6
   - 18 y_25_6 - 9 y_26_6 - 10 y_27_6 - 21 y_28_6 - 20 y_29_6 - 18 y_30_6
   - y_31_6 - 8 y_32_6 - 24 y_33_6 - 9 y_34_6 - 21 y_35_6 - 5 y_36_6
   - 21 y_37_6 - 2 y_38_6 - 12 y_39_6 - 11 y_40_6 - 19 y_41_6 - 23 y_42_6
   - 11 y_43_6 - 13 y_44_6 - 14 y_45_6 + x_6_0 >= 0
 c8: 112 x_7 - 10 y_1_7 - 16 y_2_7 - 12 y_3_7 - 6 y_4_7 - 4 y_5_7
   - 14 y_6_7 - 17 y_7_7 - 12 y_8_7 - 19 y_9_7 - 20 y_10_7 - 16 y_11_7
   - 12 y_12_7 - 5 y_13_7 - 19 y_14_7 - 6 y_15_7 - 12 y_16_7 - 4 y_17_7
   - 14 y_18_7 - 19 y_19_7 - 23 y_20_7 - 22 y_21_7 - 2 y_22_7 - 4 y_23_7
   - 14 y_24_7 - 7 y_25_7 - 18 y_26_7 - 18 y_27_7 - 6 y_28_7 - 21 y_29_7
   - 3 y_30_7 - 18 y_31_7 - 16 y_32_7 - 24 y_33_7 - 2 y_34_7 - 17 y_35_7
   - 6 y_36_7 - 3 y_37_7 - 6 y_38_7 - 19 y_39_7 - 7 y_40_7 - 11 y_41_7
   - 8 y_42_7 - y_43_7 - 14 y_44_7 - 4 y_45_7 + x_7_0 >= 0
 c9: 112 x_8 - 23 y_1_8 - 4 y_2_8 - 10 y_3_8 - 21 y_4_8 - 23 y_5_8
   - 21 y_6_8 - 10 y_7_8 - 17 y_8_8 - 23 y_9_8 - 21 y_10_8 - 2 y_11_8
   - 19 y_12_8 - 12 y_13_8 - 15 y_14_8 - y_15_8 - 2 y_16_8 - 7 y_18_8
   - 4 y_19_8 - 13 y_20_8 - 19 y_22_8 - 6 y_23_8 - y_24_8 - 17 y_25_8
   - 8 y_26_8 - 13 y_27_8 - 8 y_28_8 - 15 y_29_8 - 8 y_30_8 - 22 y_31_8
   - 21 y_32_8 - 18 y_33_8 - 25 y_34_8 - 17 y_35_8 - 4 y_36_8 - 6 y_37_8
   - 18 y_38_8 - 14 y_39_8 - 23 y_40_8 - 11 y_42_8 - 7 y_43_8 - 17 y_44_8
   - 12 y_45_8 + x_8_0 >= 0
 c10: 112 x_9 - 9 y_1_9 - 9 y_2_9 - y_3_9 - 12 y_4_9 - 4 y_5_9 - 10 y_6_9
   - 4 y_7_9 - 13 y_8_9 - 13 y_9_9 - 24 y_10_9 - 10 y_11_9 - 13 y_12_9
   - 22 y_13_9 - 14 y_14_9 - 23 y_15_9 - 15 y_16_9 - 20 y_17_9 - 19 y_18_9
   - 8 y_19_9 - 14 y_20_9 - 25 y_21_9 - 16 y_22_9 - 9 y_23_9 - 2 y_24_9
   - 13 y_25_9 - 12 y_26_9 - 22 y_27_9 - 15 y_28_9 - 12 y_29_9 - 2 y_30_9
   - 7 y_31_9 - 13 y_32_9 - 2 y_33_9 - 3 y_34_9 - 21 y_35_9 - 10 y_36_9
   - 10 y_37_9 - 19 y_38_9 - 3 y_39_9 - 10 y_40_9 - 21 y_41_9 - 18 y_42_9
   - 5 y_43_9 - 13 y_44_9 - 10 y_45_9 + x_9_0 >= 0
 c11: 112 x_10 - 17 y_1_10 - 23 y_2_10 - 8 y_3_10 - 4 y_4_10 - 24 y_5_10
   - 20 y_6_10 - 19 y_7_10 - 6 y_8_10 - 7 y_9_10 - 13 y_10_10 - 21 y_11_10
   - 13 y_12_10 - 5 y_13_10 - 11 y_14_10 - 5 y_15_10 - 10 y_16_10
   - 6 y_17_10 - 25 y_18_10 - 22 y_19_10 - 7 y_20_10 - 21 y_21_10
   - 5 y_22_10 - 9 y_23_10 - 12 y_24_10 - 15 y_25_10 - 23 y_26_10
   - 7 y_27_10 - 18 y_28_10 - 3 y_29_10 - 14 y_30_10 - 7 y_31_10
   - 7 y_32_10 - 15 y_33_10 - 12 y_34_10 - 17 y_35_10 - 22 y_36_10
   - 10 y_37_10 - 20 y_38_10 - 5 y_39_10 - 4 y_40_10 - 14 y_41_10
   - 14 y_42_10 - 3 y_43_10 - 18 y_44_10 - 3 y_45_10 + x_10_0 >= 0
 c12: 112 x_11 - 3 y_1_11 - 2 y_2_11 - 15 y_3_11 - 20 y_4_11 - 8 y_5_11
   - 23 y_6_11 - 16 y_7_11 - 21 y_8_11 - 2 y_9_11 - 12 y_10_11 - 12 y_11_11
   - 14 y_12_11 - 6 y_13_11 - 24 y_14_11 - 3 y_15_11 - 4 y_16_11
   - 6 y_17_11 - 9 y_18_11 - 21 y_19_11 - 20 y_20_11 - 5 y_21_11
   - 20 y_22_11 - 5 y_23_11 - 17 y_24_11 - 21 y_25_11 - 5 y_26_11
   - 16 y_27_11 - 5 y_28_11 - 21 y_29_11 - 19 y_30_11 - 17 y_31_11
   - y_32_11 - 3 y_33_11 - 7 y_34_11 - y_35_11 - 12 y_36_11 - 9 y_38_11
   - 5 y_39_11 - 15 y_40_11 - 3 y_41_11 - 6 y_42_11 - 17 y_43_11
   - 10 y_44_11 - 18 y_45_11 + x_11_0 >= 0
 c13: 112 x_12 - 22 y_1_12 - 17 y_2_12 - 10 y_3_12 - y_4_12 - 7 y_5_12
   - 22 y_6_12 - 7 y_7_12 - 2 y_8_12 - 16 y_9_12 - 21 y_10_12 - 18 y_11_12
   - 22 y_12_12 - 5 y_13_12 - 4 y_14_12 - 16 y_15_12 - 14 y_16_12
   - 17 y_17_12 - 25 y_18_12 - y_19_12 - 13 y_20_12 - 9 y_21_12
   - 25 y_22_12 - 2 y_23_12 - 19 y_24_12 - 22 y_25_12 - 24 y_26_12
   - 23 y_27_12 - 25 y_28_12 - 5 y_29_12 - 9 y_30_12 - 2 y_31_12
   - 9 y_32_12 - 15 y_33_12 - 14 y_34_12 - 25 y_35_12 - 3 y_36_12
   - 21 y_37_12 - 10 y_38_12 - 18 y_39_12 - 11 y_40_12 - 19 y_41_12
   - 8 y_42_12 - 23 y_44_12 - 17 y_45_12 + x_12_0 >= 0
 c14: 112 x_13 - 4 y_1_13 - 3 y_2_13 - 25 y_3_13 - 4 y_4_13 - 6 y_5_13
   - 25 y_6_13 - 5 y_7_13 - 3 y_8_13 - 5 y_9_13 - 5 y_10_13 - 16 y_11_13
   - 9 y_12_13 - 24 y_13_13 - 24 y_14_13 - 6 y_15_13 - y_16_13 - 3 y_17_13
   - 16 y_18_13 - 10 y_19_13 - 25 y_20_13 - 24 y_21_13 - y_23_13
   - 8 y_24_13 - 24 y_25_13 - 9 y_26_13 - 12 y_27_13 - 12 y_28_13
   - 14 y_29_13 - 7 y_30_13 - 23 y_31_13 - 12 y_32_13 - 13 y_34_13
   - 17 y_35_13 - 24 y_36_13 - 7 y_37_13 - 13 y_38_13 - 19 y_40_13
   - 2 y_41_13 - 12 y_42_13 - 18 y_43_13 - 2 y_44_13 - 21 y_45_13 + x_13_0
   >= 0
 c15: 112 x_14 - 2 y_1_14 - 24 y_2_14 - 3 y_3_14 - 7 y_4_14 - 21 y_5_14
   - 2 y_6_14 - 23 y_7_14 - 10 y_8_14 - 18 y_9_14 - 21 y_10_14 - 24 y_11_14
   - y_12_14 - 19 y_13_14 - 20 y_14_14 - 7 y_15_14 - 7 y_16_14 - 4 y_17_14
   - 8 y_18_14 - 13 y_19_14 - 22 y_20_14 - 23 y_21_14 - 10 y_22_14
   - 22 y_23_14 - 17 y_24_14 - 6 y_25_14 - 20 y_26_14 - 13 y_27_14
   - 3 y_28_14 - 11 y_29_14 - 24 y_30_14 - 12 y_31_14 - 12 y_32_14
   - 13 y_33_14 - 19 y_34_14 - 3 y_35_14 - 18 y_36_14 - 4 y_37_14
   - 17 y_38_14 - 21 y_39_14 - 4 y_40_14 - 21 y_41_14 - 24 y_42_14
   - 12 y_43_14 - 15 y_44_14 - 8 y_45_14 + x_14_0 >= 0
 c16: 112 x_15 - 19 y_1_15 - 11 y_2_15 - 22 y_3_15 - 20 y_4_15 - 20 y_5_15
   - 4 y_6_15 - 2 y_7_15 - y_8_15 - 20 y_9_15 - 19 y_10_15 - 22 y_11_15
   - 16 y_12_15 - 22 y_13_15 - 7 y_14_15 - 17 y_15_15 - 22 y_16_15
   - 13 y_17_15 - 8 y_18_15 - 14 y_19_15 - 19 y_20_15 - 5 y_21_15
   - 14 y_22_15 - 22 y_24_15 - 3 y_25_15 - 19 y_26_15 - 20 y_27_15
   - 6 y_28_15 - 23 y_29_15 - 7 y_30_15 - 13 y_31_15 - 4 y_32_15
   - 22 y_33_15 - 20 y_34_15 - 24 y_35_15 - 8 y_36_15 - 16 y_37_15
   - 9 y_38_15 - 21 y_39_15 - 23 y_40_15 - 8 y_41_15 - 7 y_42_15
   - 21 y_43_15 - 16 y_44_15 - y_45_15 + x_15_0 >= 0
 c17: y_1_1 + y_1_2 + y_1_3 + y_1_4 + y_1_5 + y_1_6 + y_1_7 + y_1_8 + y_1_9
   + y_1_10 + y_1_11 + y_1_12 + y_1_13 + y_1_14 + y_1_15 = 1
 c18: y_2_1 + y_2_2 + y_2_3 + y_2_4 + y_2_5 + y_2_6 + y_2_7 + y_2_8 + y_2_9
   + y_2_10 + y_2_11 + y_2_12 + y_2_13 + y_2_14 + y_2_15 = 1
 c19: y_3_1 + y_3_2 + y_3_3 + y_3_4 + y_3_5 + y_3_6 + y_3_7 + y_3_8 + y_3_9
   + y_3_10 + y_3_11 + y_3_12 + y_3_13 + y_3_14 + y_3_15 = 1
 c20: y_4_1 + y_4_2 + y_4_3 + y_4_4 + y_4_5 + y_4_6 + y_4_7 + y_4_8 + y_4_9
   + y_4_10 + y_4_11 + y_4_12 + y_4_13 + y_4_14 + y_4_15 = 1
 c21: y_5_1 + y_5_2 + y_5_3 + y_5_4 + y_5_5 + y_5_6 + y_5_7 + y_5_8 + y_5_9
   + y_5_10 + y_5_11 + y_5_12 + y_5_13 + y_5_14 + y_5_15 = 1
 c22: y_6_1 + y_6_2 + y_6_3 + y_6_4 + y_6_5 + y_6_6 + y_6_7 + y_6_8 + y_6_9
   + y_6_10 + y_6_11 + y_6_12 + y_6_13 + y_6_14 + y_6_15 = 1
 c23: y_7_1 + y_7_2 + y_7_3 + y_7_4 + y_7_5 + y_7_6 + y_7_7 + y_7_8 + y_7_9
   + y_7_10 + y_7_11 + y_7_12 + y_7_13 + y_7_14 + y_7_15 = 1
 c24: y_8_1 + y_8_2 + y_8_3 + y_8_4 + y_8_5 + y_8_6 + y_8_7 + y_8_8 + y_8_9
   + y_8_10 + y_8_11 + y_8_12 + y_8_13 + y_8_14 + y_8_15 = 1
 c25: y_9_1 + y_9_2 + y_9_3 + y_9_4 + y_9_5 + y_9_6 + y_9_7 + y_9_8 + y_9_9
   + y_9_10 + y_9_11 + y_9_12 + y_9_13 + y_9_14 + y_9_15 = 1
 c26: y_10_1 + y_10_2 + y_10_3 + y_10_4 + y_10_5 + y_10_6 + y_10_7 + y_10_8
   + y_10_9 + y_10_10 + y_10_11 + y_10_12 + y_10_13 + y_10_14 + y_10_15
   = 1
 c27: y_11_1 + y_11_2 + y_11_3 + y_11_4 + y_11_5 + y_11_6 + y_11_7 + y_11_8
   + y_11_9 + y_11_10 + y_11_11 + y_11_12 + y_11_13 + y_11_14 + y_11_15
   = 1
 c28: y_12_1 + y_12_2 + y_12_3 + y_12_4 + y_12_5 + y_12_6 + y_12_7 + y_12_8
   + y_12_9 + y_12_10 + y_12_11 + y_12_12 + y_12_13 + y_12_14 + y_12_15
   = 1
 c29: y_13_1 + y_13_2 + y_13_3 + y_13_4 + y_13_5 + y_13_6 + y_13_7 + y_13_8
   + y_13_9 + y_13_10 + y_13_11 + y_13_12 + y_13_13 + y_13_14 + y_13_15
   = 1
 c30: y_14_1 + y_14_2 + y_14_3 + y_14_4 + y_14_5 + y_14_6 + y_14_7 + y_14_8
   + y_14_9 + y_14_10 + y_14_11 + y_14_12 + y_14_13 + y_14_14 + y_14_15
   = 1
 c31: y_15_1 + y_15_2 + y_15_3 + y_15_4 + y_15_5 + y_15_6 + y_15_7 + y_15_8
   + y_15_9 + y_15_10 + y_15_11 + y_15_12 + y_15_13 + y_15_14 + y_15_15
   = 1
 c32: y_16_1 + y_16_2 + y_16_3 + y_16_4 + y_16_5 + y_16_6 + y_16_7 + y_16_8
   + y_16_9 + y_16_10 + y_16_11 + y_16_12 + y_16_13 + y_16_14 + y_16_15
   = 1
 c33: y_17_1 + y_17_2 + y_17_3 + y_17_4 + y_17_5 + y_17_6 + y_17_7 + y_17_8
   + y_17_9 + y_17_10 + y_17_11 + y_17_12 + y_17_13 + y_17_14 + y_17_15
   = 1
 c34: y_18_1 + y_18_2 + y_18_3 + y_18_4 + y_18_5 + y_18_6 + y_18_7 + y_18_8
   + y_18_9 + y_18_10 + y_18_11 + y_18_12 + y_18_13 + y_18_14 + y_18_15
   = 1
 c35: y_19_1 + y_19_2 + y_19_3 + y_19_4 + y_19_5 + y_19_6 + y_19_7 + y_19_8
   + y_19_9 + y_19_10 + y_19_11 + y_19_12 + y_19_13 + y_19_14 + y_19_15
   = 1
 c36: y_20_1 + y_20_2 + y_20_3 + y_20_4 + y_20_5 + y_20_6 + y_20_7 + y_20_8
   + y_20_9 + y_20_10 + y_20_11 + y_20_12 + y_20_13 + y_20_14 + y_20_15
   = 1
 c37: y_21_1 + y_21_2 + y_21_3 + y_21_4 + y_21_5 + y_21_6 + y_21_7 + y_21_8
   + y_21_9 + y_21_10 + y_21_11 + y_21_12 + y_21_13 + y_21_14 + y_21_15
   = 1
 c38: y_22_1 + y_22_2 + y_22_3 + y_22_4 + y_22_5 + y_22_6 + y_22_7 + y_22_8
   + y_22_9 + y_22_10 + y_22_11 + y_22_12 + y_22_13 + y_22_14 + y_22_15
   = 1
 c39: y_23_1 + y_23_2 + y_23_3 + y_23_4 + y_23_5 + y_23_6 + y_23_7 + y_23_8
   + y_23_9 + y_23_10 + y_23_11 + y_23_12 + y_23_13 + y_23_14 + y_23_15
   = 1
 c40: y_24_1 + y_24_2 + y_24_3 + y_24_4 + y_24_5 + y_24_6 + y_24_7 + y_24_8
   + y_24_9 + y_24_10 + y_24_11 + y_24_12 + y_24_13 + y_24_14 + y_24_15
   = 1
 c41: y_25_1 + y_25_2 + y_25_3 + y_25_4 + y_25_5 + y_25_6 + y_25_7 + y_25_8
   + y_25_9 + y_25_10 + y_25_11 + y_25_12 + y_25_13 + y_25_14 + y_25_15
   = 1
 c42: y_26_1 + y_26_2 + y_26_3 + y_26_4 + y_26_5 + y_26_6 + y_26_7 + y_26_8
   + y_26_9 + y_26_10 + y_26_11 + y_26_12 + y_26_13 + y_26_14 + y_26_15
   = 1
 c43: y_27_1 + y_27_2 + y_27_3 + y_27_4 + y_27_5 + y_27_6 + y_27_7 + y_27_8
   + y_27_9 + y_27_10 + y_27_11 + y_27_12 + y_27_13 + y_27_14 + y_27_15
   = 1
 c44: y_28_1 + y_28_2 + y_28_3 + y_28_4 + y_28_5 + y_28_6 + y_28_7 + y_28_8
   + y_28_9 + y_28_10 + y_28_11 + y_28_12 + y_28_13 + y_28_14 + y_28_15
   = 1
 c45: y_29_1 + y_29_2 + y_29_3 + y_29_4 + y_29_5 + y_29_6 + y_29_7 + y_29_8
   + y_29_9 + y_29_10 + y_29_11 + y_29_12 + y_29_13 + y_29_14 + y_29_15
   = 1
 c46: y_30_1 + y_30_2 + y_30_3 + y_30_4 + y_30_5 + y_30_6 + y_30_7 + y_30_8
   + y_30_9 + y_30_10 + y_30_11 + y_30_12 + y_30_13 + y_30_14 + y_30_15
   = 1
 c47: y_31_1 + y_31_2 + y_31_3 + y_31_4 + y_31_5 + y_31_6 + y_31_7 + y_31_8
   + y_31_9 + y_31_10 + y_31_11 + y_31_12 + y_31_13 + y_31_14 + y_31_15
   = 1
 c48: y_32_1 + y_32_2 + y_32_3 + y_32_4 + y_32_5 + y_32_6 + y_32_7 + y_32_8
   + y_32_9 + y_32_10 + y_32_11 + y_32_12 + y_32_13 + y_32_14 + y_32_15
   = 1
 c49: y_33_1 + y_33_2 + y_33_3 + y_33_4 + y_33_5 + y_33_6 + y_33_7 + y_33_8
   + y_33_9 + y_33_10 + y_33_11 + y_33_12 + y_33_13 + y_33_14 + y_33_15
   = 1
 c50: y_34_1 + y_34_2 + y_34_3 + y_34_4 + y_34_5 + y_34_6 + y_34_7 + y_34_8
   + y_34_9 + y_34_10 + y_34_11 + y_34_12 + y_34_13 + y_34_14 + y_34_15
   = 1
 c51: y_35_1 + y_35_2 + y_35_3 + y_35_4 + y_35_5 + y_35_6 + y_35_7 + y_35_8
   + y_35_9 + y_35_10 + y_35_11 + y_35_12 + y_35_13 + y_35_14 + y_35_15
   = 1
 c52: y_36_1 + y_36_2 + y_36_3 + y_36_4 + y_36_5 + y_36_6 + y_36_7 + y_36_8
   + y_36_9 + y_36_10 + y_36_11 + y_36_12 + y_36_13 + y_36_14 + y_36_15
   = 1
 c53: y_37_1 + y_37_2 + y_37_3 + y_37_4 + y_37_5 + y_37_6 + y_37_7 + y_37_8
   + y_37_9 + y_37_10 + y_37_11 + y_37_12 + y_37_13 + y_37_14 + y_37_15
   = 1
 c54: y_38_1 + y_38_2 + y_38_3 + y_38_4 + y_38_5 + y_38_6 + y_38_7 + y_38_8
   + y_38_9 + y_38_10 + y_38_11 + y_38_12 + y_38_13 + y_38_14 + y_38_15
   = 1
 c55: y_39_1 + y_39_2 + y_39_3 + y_39_4 + y_39_5 + y_39_6 + y_39_7 + y_39_8
   + y_39_9 + y_39_10 + y_39_11 + y_39_12 + y_39_13 + y_39_14 + y_39_15
   = 1
 c56: y_40_1 + y_40_2 + y_40_3 + y_40_4 + y_40_5 + y_40_6 + y_40_7 + y_40_8
   + y_40_9 + y_40_10 + y_40_11 + y_40_12 + y_40_13 + y_40_14 + y_40_15
   = 1
 c57: y_41_1 + y_41_2 + y_41_3 + y_41_4 + y_41_5 + y_41_6 + y_41_7 + y_41_8
   + y_41_9 + y_41_10 + y_41_11 + y_41_12 + y_41_13 + y_41_14 + y_41_15
   = 1
 c58: y_42_1 + y_42_2 + y_42_3 + y_42_4 + y_42_5 + y_42_6 + y_42_7 + y_42_8
   + y_42_9 + y_42_10 + y_42_11 + y_42_12 + y_42_13 + y_42_14 + y_42_15
   = 1
 c59: y_43_1 + y_43_2 + y_43_3 + y_43_4 + y_43_5 + y_43_6 + y_43_7 + y_43_8
   + y_43_9 + y_43_10 + y_43_11 + y_43_12 + y_43_13 + y_43_14 + y_43_15
   = 1
 c60: y_44_1 + y_44_2 + y_44_3 + y_44_4 + y_44_5 + y_44_6 + y_44_7 + y_44_8
   + y_44_9 + y_44_10 + y_44_11 + y_44_12 + y_44_13 + y_44_14 + y_44_15
   = 1
 c61: y_45_1 + y_45_2 + y_45_3 + y_45_4 + y_45_5 + y_45_6 + y_45_7 + y_45_8
   + y_45_9 + y_45_10 + y_45_11 + y_45_12 + y_45_13 + y_45_14 + y_45_15
   = 1
Bounds
 x_1 <= 1
 x_2 <= 1
 x_3 <= 1
 x_4 <= 1
 x_5 <= 1
 x_6 <= 1
 x_7 <= 1
 x_8 <= 1
 x_9 <= 1
 x_10 <= 1
 x_11 <= 1
 x_12 <= 1
 x_13 <= 1
 x_14 <= 1
 x_15 <= 1
 y_1_1 <= 1
 y_1_2 <= 1
 y_1_3 <= 1
 y_1_4 <= 1
 y_1_5 <= 1
 y_1_6 <= 1
 y_1_7 <= 1
 y_1_8 <= 1
 y_1_9 <= 1
 y_1_10 <= 1
 y_1_11 <= 1
 y_1_12 <= 1
 y_1_13 <= 1
 y_1_14 <= 1
 y_1_15 <= 1
 y_2_1 <= 1
 y_2_2 <= 1
 y_2_3 <= 1
 y_2_4 <= 1
 y_2_5 <= 1
 y_2_6 <= 1
 y_2_7 <= 1
 y_2_8 <= 1
 y_2_9 <= 1
 y_2_10 <= 1
 y_2_11 <= 1
 y_2_12 <= 1
 y_2_13 <= 1
 y_2_14 <= 1
 y_2_15 <= 1
 y_3_1 <= 1
 y_3_2 <= 1
 y_3_3 <= 1
 y_3_4 <= 1
 y_3_5 <= 1
 y_3_6 <= 1
 y_3_7 <= 1
 y_3_8 <= 1
 y_3_9 <= 1
 y_3_10 <= 1
 y_3_11 <= 1
 y_3_12 <= 1
 y_3_13 <= 1
 y_3_14 <= 1
 y_3_15 <= 1
 y_4_1 <= 1
 y_4_2 <= 1
 y_4_3 <= 1
 y_4_4 <= 1
 y_4_5 <= 1
 y_4_6 <= 1
 y_4_7 <= 1
 y_4_8 <= 1
 y_4_9 <= 1
 y_4_10 <= 1
 y_4_11 <= 1
 y_4_12 <= 1
 y_4_13 <= 1
 y_4_14 <= 1
 y_4_15 <= 1
 y_5_1 <= 1
 y_5_2 <= 1
 y_5_3 <= 1
 y_5_4 <= 1
 y_5_5 <= 1
 y_5_6 <= 1
 y_5_7 <= 1
 y_5_8 <= 1
 y_5_9 <= 1
 y_5_10 <= 1
 y_5_11 <= 1
 y_5_12 <= 1
 y_5_13 <= 1
 y_5_14 <= 1
 y_5_15 <= 1
 y_6_1 <= 1
 y_6_2 <= 1
 y_6_3 <= 1
 y_6_4 <= 1
 y_6_5 <= 1
 y_6_6 <= 1
 y_6_7 <= 1
 y_6_8 <= 1
 y_6_9 <= 1
 y_6_10 <= 1
 y_6_11 <= 1
 y_6_12 <= 1
 y_6_13 <= 1
 y_6_14 <= 1
 y_6_15 <= 1
 y_7_1 <= 1
 y_7_2 <= 1
 y_7_3 <= 1
 y_7_4 <= 1
 y_7_5 <= 1
 y_7_6 <= 1
 y_7_7 <= 1
 y_7_8 <= 1
 y_7_9 <= 1
 y_7_10 <= 1
 y_7_11 <= 1
 y_7_12 <= 1
 y_7_13 <= 1
 y_7_14 <= 1
 y_7_15 <= 1
 y_8_1 <= 1
 y_8_2 <= 1
 y_8_3 <= 1
 y_8_4 <= 1
 y_8_5 <= 1
 y_8_6 <= 1
 y_8_7 <= 1
 y_8_8 <= 1
 y_8_9 <= 1
 y_8_10 <= 1
 y_8_11 <= 1
 y_8_12 <= 1
 y_8_13 <= 1
 y_8_14 <= 1
 y_8_15 <= 1
 y_9_1 <= 1
 y_9_2 <= 1
 y_9_3 <= 1
 y_9_4 <= 1
 y_9_5 <= 1
 y_9_6 <= 1
 y_9_7 <= 1
 y_9_8 <= 1
 y_9_9 <= 1
 y_9_10 <= 1
 y_9_11 <= 1
 y_9_12 <= 1
 y_9_13 <= 1
 y_9_14 <= 1
 y_9_15 <= 1
 y_10_1 <= 1
 y_10_2 <= 1
 y_10_3 <= 1
 y_10_4 <= 1
 y_10_5 <= 1
 y_10_6 <= 1
 y_10_7 <= 1
 y_10_8 <= 1
 y_10_9 <= 1
 y_10_10 <= 1
 y_10_11 <= 1
 y_10_12 <= 1
 y_10_13 <= 1
 y_10_14 <= 1
 y_10_15 <= 1
 y_11_1 <= 1
 y_11_2 <= 1
 y_11_3 <= 1
 y_11_4 <= 1
 y_11_5 <= 1
 y_11_6 <= 1
 y_11_7 <= 1
 y_11_8 <= 1
 y_11_9 <= 1
 y_11_10 <= 1
 y_11_11 <= 1
 y_11_12 <= 1
 y_11_13 <= 1
 y_11_14 <= 1
 y_11_15 <= 1
 y_12_1 <= 1
 y_12_2 <= 1
 y_12_3 <= 1
 y_12_4 <= 1
 y_12_5 <= 1
 y_12_6 <= 1
 y_12_7 <= 1
 y_12_8 <= 1
 y_12_9 <= 1
 y_12_10 <= 1
 y_12_11 <= 1
 y_12_12 <= 1
 y_12_13 <= 1
 y_12_14 <= 1
 y_12_15 <= 1
 y_13_1 <= 1
 y_13_2 <= 1
 y_13_3 <= 1
 y_13_4 <= 1
 y_13_5 <= 1
 y_13_6 <= 1
 y_13_7 <= 1
 y_13_8 <= 1
 y_13_9 <= 1
 y_13_10 <= 1
 y_13_11 <= 1
 y_13_12 <= 1
 y_13_13 <= 1
 y_13_14 <= 1
 y_13_15 <= 1
 y_14_1 <= 1
 y_14_2 <= 1
 y_14_3 <= 1
 y_14_4 <= 1
 y_14_5 <= 1
 y_14_6 <= 1
 y_14_7 <= 1
 y_14_8 <= 1
 y_14_9 <= 1
 y_14_10 <= 1
 y_14_11 <= 1
 y_14_12 <= 1
 y_14_13 <= 1
 y_14_14 <= 1
 y_14_15 <= 1
 y_15_1 <= 1
 y_15_2 <= 1
 y_15_3 <= 1
 y_15_4 <= 1
 y_15_5 <= 1
 y_15_6 <= 1
 y_15_7 <= 1
 y_15_8 <= 1
 y_15_9 <= 1
 y_15_10 <= 1
 y_15_11 <= 1
 y_15_12 <= 1
 y_15_13 <= 1
 y_15_14 <= 1
 y_15_15 <= 1
 y_16_1 <= 1
 y_16_2 <= 1
 y_16_3 <= 1
 y_16_4 <= 1
 y_16_5 <= 1
 y_16_6 <= 1
 y_16_7 <= 1
 y_16_8 <= 1
 y_16_9 <= 1
 y_16_10 <= 1
 y_16_11 <= 1
 y_16_12 <= 1
 y_16_13 <= 1
 y_16_14 <= 1
 y_16_15 <= 1
 y_17_1 <= 1
 y_17_2 <= 1
 y_17_3 <= 1
 y_17_4 <= 1
 y_17_5 <= 1
 y_17_6 <= 1
 y_17_7 <= 1
 y_17_8 <= 1
 y_17_9 <= 1
 y_17_10 <= 1
 y_17_11 <= 1
 y_17_12 <= 1
 y_17_13 <= 1
 y_17_14 <= 1
 y_17_15 <= 1
 y_18_1 <= 1
 y_18_2 <= 1
 y_18_3 <= 1
 y_18_4 <= 1
 y_18_5 <= 1
 y_18_6 <= 1
 y_18_7 <= 1
 y_18_8 <= 1
 y_18_9 <= 1
 y_18_10 <= 1
 y_18_11 <= 1
 y_18_12 <= 1
 y_18_13 <= 1
 y_18_14 <= 1
 y_18_15 <= 1
 y_19_1 <= 1
 y_19_2 <= 1
 y_19_3 <= 1
 y_19_4 <= 1
 y_19_5 <= 1
 y_19_6 <= 1
 y_19_7 <= 1
 y_19_8 <= 1
 y_19_9 <= 1
 y_19_10 <= 1
 y_19_11 <= 1
 y_19_12 <= 1
 y_19_13 <= 1
 y_19_14 <= 1
 y_19_15 <= 1
 y_20_1 <= 1
 y_20_2 <= 1
 y_20_3 <= 1
 y_20_4 <= 1
 y_20_5 <= 1
 y_20_6 <= 1
 y_20_7 <= 1
 y_20_8 <= 1
 y_20_9 <= 1
 y_20_10 <= 1
 y_20_11 <= 1
 y_20_12 <= 1
 y_20_13 <= 1
 y_20_14 <= 1
 y_20_15 <= 1
 y_21_1 <= 1
 y_21_2 <= 1
 y_21_3 <= 1
 y_21_4 <= 1
 y_21_5 <= 1
 y_21_6 <= 1
 y_21_7 <= 1
 y_21_8 <= 1
 y_21_9 <= 1
 y_21_10 <= 1
 y_21_11 <= 1
 y_21_12 <= 1
 y_21_13 <= 1
 y_21_14 <= 1
 y_21_15 <= 1
 y_22_1 <= 1
 y_22_2 <= 1
 y_22_3 <= 1
 y_22_4 <= 1
 y_22_5 <= 1
 y_22_6 <= 1
 y_22_7 <= 1
 y_22_8 <= 1
 y_22_9 <= 1
 y_22_10 <= 1
 y_22_11 <= 1
 y_22_12 <= 1
 y_22_13 <= 1
 y_22_14 <= 1
 y_22_15 <= 1
 y_23_1 <= 1
 y_23_2 <= 1
 y_23_3 <= 1
 y_23_4 <= 1
 y_23_5 <= 1
 y_23_6 <= 1
 y_23_7 <= 1
 y_23_8 <= 1
 y_23_9 <= 1
 y_23_10 <= 1
 y_23_11 <= 1
 y_23_12 <= 1
 y_23_13 <= 1
 y_23_14 <= 1
 y_23_15 <= 1
 y_24_1 <= 1
 y_24_2 <= 1
 y_24_3 <= 1
 y_24_4 <= 1
 y_24_5 <= 1
 y_24_6 <= 1
 y_24_7 <= 1
 y_24_8 <= 1
 y_24_9 <= 1
 y_24_10 <= 1
 y_24_11 <= 1
 y_24_12 <= 1
 y_24_13 <= 1
 y_24_14 <= 1
 y_24_15 <= 1
 y_25_1 <= 1
 y_25_2 <= 1
 y_25_3 <= 1
 y_25_4 <= 1
 y_25_5 <= 1
 y_25_6 <= 1
 y_25_7 <= 1
 y_25_8 <= 1
 y_25_9 <= 1
 y_25_10 <= 1
 y_25_11 <= 1
 y_25_12 <= 1
 y_25_13 <= 1
 y_25_14 <= 1
 y_25_15 <= 1
 y_26_1 <= 1
 y_26_2 <= 1
 y_26_3 <= 1
 y_26_4 <= 1
 y_26_5 <= 1
 y_26_6 <= 1
 y_26_7 <= 1
 y_26_8 <= 1
 y_26_9 <= 1
 y_26_10 <= 1
 y_26_11 <= 1
 y_26_12 <= 1
 y_26_13 <= 1
 y_26_14 <= 1
 y_26_15 <= 1
 y_27_1 <= 1
 y_27_2 <= 1
 y_27_3 <= 1
 y_27_4 <= 1
 y_27_5 <= 1
 y_27_6 <= 1
 y_27_7 <= 1
 y_27_8 <= 1
 y_27_9 <= 1
 y_27_10 <= 1
 y_27_11 <= 1
 y_27_12 <= 1
 y_27_13 <= 1
 y_27_14 <= 1
 y_27_15 <= 1
 y_28_1 <= 1
 y_28_2 <= 1
 y_28_3 <= 1
 y_28_4 <= 1
 y_28_5 <= 1
 y_28_6 <= 1
 y_28_7 <= 1
 y_28_8 <= 1
 y_28_9 <= 1
 y_28_10 <= 1
 y_28_11 <= 1
 y_28_12 <= 1
 y_28_13 <= 1
 y_28_14 <= 1
 y_28_15 <= 1
 y_29_1 <= 1
 y_29_2 <= 1
 y_29_3 <= 1
 y_29_4 <= 1
 y_29_5 <= 1
 y_29_6 <= 1
 y_29_7 <= 1
 y_29_8 <= 1
 y_29_9 <= 1
 y_29_10 <= 1
 y_29_11 <= 1
 y_29_12 <= 1
 y_29_13 <= 1
 y_29_14 <= 1
 y_29_15 <= 1
 y_30_1 <= 1
 y_30_2 <= 1
 y_30_3 <= 1
 y_30_4 <= 1
 y_30_5 <= 1
 y_30_6 <= 1
 y_30_7 <= 1
 y_30_8 <= 1
 y_30_9 <= 1
 y_30_10 <= 1
 y_30_11 <= 1
 y_30_12 <= 1
 y_30_13 <= 1
 y_30_14 <= 1
 y_30_15 <= 1
 y_31_1 <= 1
 y_31_2 <= 1
 y_31_3 <= 1
 y_31_4 <= 1
 y_31_5 <= 1
 y_31_6 <= 1
 y_31_7 <= 1
 y_31_8 <= 1
 y_31_9 <= 1
 y_31_10 <= 1
 y_31_11 <= 1
 y_31_12 <= 1
 y_31_13 <= 1
 y_31_14 <= 1
 y_31_15 <= 1
 y_32_1 <= 1
 y_32_2 <= 1
 y_32_3 <= 1
 y_32_4 <= 1
 y_32_5 <= 1
 y_32_6 <= 1
 y_32_7 <= 1
 y_32_8 <= 1
 y_32_9 <= 1
 y_32_10 <= 1
 y_32_11 <= 1
 y_32_12 <= 1
 y_32_13 <= 1
 y_32_14 <= 1
 y_32_15 <= 1
 y_33_1 <= 1
 y_33_2 <= 1
 y_33_3 <= 1
 y_33_4 <= 1
 y_33_5 <= 1
 y_33_6 <= 1
 y_33_7 <= 1
 y_33_8 <= 1
 y_33_9 <= 1
 y_33_10 <= 1
 y_33_11 <= 1
 y_33_12 <= 1
 y_33_13 <= 1
 y_33_14 <= 1
 y_33_15 <= 1
 y_34_1 <= 1
 y_34_2 <= 1
 y_34_3 <= 1
 y_34_4 <= 1
 y_34_5 <= 1
 y_34_6 <= 1
 y_34_7 <= 1
 y_34_8 <= 1
 y_34_9 <= 1
 y_34_10 <= 1
 y_34_11 <= 1
 y_34_12 <= 1
 y_34_13 <= 1
 y_34_14 <= 1
 y_34_15 <= 1
 y_35_1 <= 1
 y_35_2 <= 1
 y_35_3 <= 1
 y_35_4 <= 1
 y_35_5 <= 1
 y_35_6 <= 1
 y_35_7 <= 1
 y_35_8 <= 1
 y_35_9 <= 1
 y_35_10 <= 1
 y_35_11 <= 1
 y_35_12 <= 1
 y_35_13 <= 1
 y_35_14 <= 1
 y_35_15 <= 1
 y_36_1 <= 1
 y_36_2 <= 1
 y_36_3 <= 1
 y_36_4 <= 1
 y_36_5 <= 1
 y_36_6 <= 1
 y_36_7 <= 1
 y_36_8 <= 1
 y_36_9 <= 1
 y_36_10 <= 1
 y_36_11 <= 1
 y_36_12 <= 1
 y_36_13 <= 1
 y_36_14 <= 1
 y_36_15 <= 1
 y_37_1 <= 1
 y_37_2 <= 1
 y_37_3 <= 1
 y_37_4 <= 1
 y_37_5 <= 1
 y_37_6 <= 1
 y_37_7 <= 1
 y_37_8 <= 1
 y_37_9 <= 1
 y_37_10 <= 1
 y_37_11 <= 1
 y_37_12 <= 1
 y_37_13 <= 1
 y_37_14 <= 1
 y_37_15 <= 1
 y_38_1 <= 1
 y_38_2 <= 1
 y_38_3 <= 1
 y_38_4 <= 1
 y_38_5 <= 1
 y_38_6 <= 1
 y_38_7 <= 1
 y_38_8 <= 1
 y_38_9 <= 1
 y_38_10 <= 1
 y_38_11 <= 1
 y_38_12 <= 1
 y_38_13 <= 1
 y_38_14 <= 1
 y_38_15 <= 1
 y_39_1 <= 1
 y_39_2 <= 1
 y_39_3 <= 1
 y_39_4 <= 1
 y_39_5 <= 1
 y_39_6 <= 1
 y_39_7 <= 1
 y_39_8 <= 1
 y_39_9 <= 1
 y_39_10 <= 1
 y_39_11 <= 1
 y_39_12 <= 1
 y_39_13 <= 1
 y_39_14 <= 1
 y_39_15 <= 1
 y_40_1 <= 1
 y_40_2 <= 1
 y_40_3 <= 1
 y_40_4 <= 1
 y_40_5 <= 1
 y_40_6 <= 1
 y_40_7 <= 1
 y_40_8 <= 1
 y_40_9 <= 1
 y_40_10 <= 1
 y_40_11 <= 1
 y_40_12 <= 1
 y_40_13 <= 1
 y_40_14 <= 1
 y_40_15 <= 1
 y_41_1 <= 1
 y_41_2 <= 1
 y_41_3 <= 1
 y_41_4 <= 1
 y_41_5 <= 1
 y_41_6 <= 1
 y_41_7 <= 1
 y_41_8 <= 1
 y_41_9 <= 1
 y_41_10 <= 1
 y_41_11 <= 1
 y_41_12 <= 1
 y_41_13 <= 1
 y_41_14 <= 1
 y_41_15 <= 1
 y_42_1 <= 1
 y_42_2 <= 1
 y_42_3 <= 1
 y_42_4 <= 1
 y_42_5 <= 1
 y_42_6 <= 1
 y_42_7 <= 1
 y_42_8 <= 1
 y_42_9 <= 1
 y_42_10 <= 1
 y_42_11 <= 1
 y_42_12 <= 1
 y_42_13 <= 1
 y_42_14 <= 1
 y_42_15 <= 1
 y_43_1 <= 1
 y_43_2 <= 1
 y_43_3 <= 1
 y_43_4 <= 1
 y_43_5 <= 1
 y_43_6 <= 1
 y_43_7 <= 1
 y_43_8 <= 1
 y_43_9 <= 1
 y_43_10 <= 1
 y_43_11 <= 1
 y_43_12 <= 1
 y_43_13 <= 1
 y_43_14 <= 1
 y_43_15 <= 1
 y_44_1 <= 1
 y_44_2 <= 1
 y_44_3 <= 1
 y_44_4 <= 1
 y_44_5 <= 1
 y_44_6 <= 1
 y_44_7 <= 1
 y_44_8 <= 1
 y_44_9 <= 1
 y_44_10 <= 1
 y_44_11 <= 1
 y_44_12 <= 1
 y_44_13 <= 1
 y_44_14 <= 1
 y_44_15 <= 1
 y_45_1 <= 1
 y_45_2 <= 1
 y_45_3 <= 1
 y_45_4 <= 1
 y_45_5 <= 1
 y_45_6 <= 1
 y_45_7 <= 1
 y_45_8 <= 1
 y_45_9 <= 1
 y_45_10 <= 1
 y_45_11 <= 1
 y_45_12 <= 1
 y_45_13 <= 1
 y_45_14 <= 1
 y_45_15 <= 1
Generals
 x_1 x_2 x_3 x_4 x_5 x_6 x_7 x_8 x_9 x_10 x_11 x_12 x_13 x_14 x_15 y_1_1
 y_1_2 y_1_3 y_1_4 y_1_5 y_1_6 y_1_7 y_1_8 y_1_9 y_1_10 y_1_11 y_1_12
 y_1_13 y_1_14 y_1_15 y_2_1 y_2_2 y_2_3 y_2_4 y_2_5 y_2_6 y_2_7 y_2_8 y_2_9
 y_2_10 y_2_11 y_2_12 y_2_13 y_2_14 y_2_15 y_3_1 y_3_2 y_3_3 y_3_4 y_3_5
 y_3_6 y_3_7 y_3_8 y_3_9 y_3_10 y_3_11 y_3_12 y_3_13 y_3_14 y_3_15 y_4_1
 y_4_2 y_4_3 y_4_4 y_4_5 y_4_6 y_4_7 y_4_8 y_4_9 y_4_10 y_4_11 y_4_12
 y_4_13 y_4_14 y_4_15 y_5_1 y_5_2 y_5_3 y_5_4 y_5_5 y_5_6 y_5_7 y_5_8 y_5_9
 y_5_10 y_5_11 y_5_12 y_5_13 y_5_14 y_5_15 y_6_1 y_6_2 y_6_3 y_6_4 y_6_5
 y_6_6 y_6_7 y_6_8 y_6_9 y_6_10 y_6_11 y_6_12 y_6_13 y_6_14 y_6_15 y_7_1
 y_7_2 y_7_3 y_7_4 y_7_5 y_7_6 y_7_7 y_7_8 y_7_9 y_7_10 y_7_11 y_7_12
 y_7_13 y_7_14 y_7_15 y_8_1 y_8_2 y_8_3 y_8_4 y_8_5 y_8_6 y_8_7 y_8_8 y_8_9
 y_8_10 y_8_11 y_8_12 y_8_13 y_8_14 y_8_15 y_9_1 y_9_2 y_9_3 y_9_4 y_9_5
 y_9_6 y_9_7 y_9_8 y_9_9 y_9_10 y_9_11 y_9_12 y_9_13 y_9_14 y_9_15 y_10_1
 y_10_2 y_10_3 y_10_4 y_10_5 y_10_6 y_10_7 y_10_8 y_10_9 y_10_10 y_10_11
 y_10_12 y_10_13 y_10_14 y_10_15 y_11_1 y_11_2 y_11_3 y_11_4 y_11_5 y_11_6
 y_11_7 y_11_8 y_11_9 y_11_10 y_11_11 y_11_12 y_11_13 y_11_14 y_11_15
 y_12_1 y_12_2 y_12_3 y_12_4 y_12_5 y_12_6 y_12_7 y_12_8 y_12_9 y_12_10
 y_12_11 y_12_12 y_12_13 y_12_14 y_12_15 y_13_1 y_13_2 y_13_3 y_13_4 y_13_5
 y_13_6 y_13_7 y_13_8 y_13_9 y_13_10 y_13_11 y_13_12 y_13_13 y_13_14
 y_13_15 y_14_1 y_14_2 y_14_3 y_14_4 y_14_5 y_14_6 y_14_7 y_14_8 y_14_9
 y_14_10 y_14_11 y_14_12 y_14_13 y_14_14 y_14_15 y_15_1 y_15_2 y_15_3
 y_15_4 y_15_5 y_15_6 y_15_7 y_15_8 y_15_9 y_15_10 y_15_11 y_15_12 y_15_13
 y_15_14 y_15_15 y_16_1 y_16_2 y_16_3 y_16_4 y_16_5 y_16_6 y_16_7 y_16_8
 y_16_9 y_16_10 y_16_11 y_16_12 y_16_13 y_16_14 y_16_15 y_17_1 y_17_2
 y_17_3 y_17_4 y_17_5 y_17_6 y_17_7 y_17_8 y_17_9 y_17_10 y_17_11 y_17_12
 y_17_13 y_17_14 y_17_15 y_18_1 y_18_2 y_18_3 y_18_4 y_18_5 y_18_6 y_18_7
 y_18_8 y_18_9 y_18_10 y_18_11 y_18_12 y_18_13 y_18_14 y_18_15 y_19_1
 y_19_2 y_19_3 y_19_4 y_19_5 y_19_6 y_19_7 y_19_8 y_19_9 y_19_10 y_19_11
 y_19_12 y_19_13 y_19_14 y_19_15 y_20_1 y_20_2 y_20_3 y_20_4 y_20_5 y_20_6
 y_20_7 y_20_8 y_20_9 y_20_10 y_20_11 y_20_12 y_20_13 y_20_14 y_20_15
 y_21_1 y_21_2 y_21_3 y_21_4 y_21_5 y_21_6 y_21_7 y_21_8 y_21_9 y_21_10
 y_21_11 y_21_12 y_21_13 y_21_14 y_21_15 y_22_1 y_22_2 y_22_3 y_22_4 y_22_5
 y_22_6 y_22_7 y_22_8 y_22_9 y_22_10 y_22_11 y_22_12 y_22_13 y_22_14
 y_22_15 y_23_1 y_23_2 y_23_3 y_23_4 y_23_5 y_23_6 y_23_7 y_23_8 y_23_9
 y_23_10 y_23_11 y_23_12 y_23_13 y_23_14 y_23_15 y_24_1 y_24_2 y_24_3
 y_24_4 y_24_5 y_24_6 y_24_7 y_24_8 y_24_9 y_24_10 y_24_11 y_24_12 y_24_13
 y_24_14 y_24_15 y_25_1 y_25_2 y_25_3 y_25_4 y_25_5 y_25_6 y_25_7 y_25_8
 y_25_9 y_25_10 y_25_11 y_25_12 y_25_13 y_25_14 y_25_15 y_26_1 y_26_2
 y_26_3 y_26_4 y_26_5 y_26_6 y_26_7 y_26_8 y_26_9 y_26_10 y_26_11 y_26_12
 y_26_13 y_26_14 y_26_15 y_27_1 y_27_2 y_27_3 y_27_4 y_27_5 y_27_6 y_27_7
 y_27_8 y_27_9 y_27_10 y_27_11 y_27_12 y_27_13 y_27_14 y_27_15 y_28_1
 y_28_2 y_28_3 y_28_4 y_28_5 y_28_6 y_28_7 y_28_8 y_28_9 y_28_10 y_28_11
 y_28_12 y_28_13 y_28_14 y_28_15 y_29_1 y_29_2 y_29_3 y_29_4 y_29_5 y_29_6
 y_29_7 y_29_8 y_29_9 y_29_10 y_29_11 y_29_12 y_29_13 y_29_14 y_29_15
 y_30_1 y_30_2 y_30_3 y_30_4 y_30_5 y_30_6 y_30_7 y_30_8 y_30_9 y_30_10
 y_30_11 y_30_12 y_30_13 y_30_14 y_30_15 y_31_1 y_31_2 y_31_3 y_31_4 y_31_5
 y_31_6 y_31_7 y_31_8 y_31_9 y_31_10 y_31_11 y_31_12 y_31_13 y_31_14
 y_31_15 y_32_1 y_32_2 y_32_3 y_32_4 y_32_5 y_32_6 y_32_7 y_32_8 y_32_9
 y_32_10 y_32_11 y_32_12 y_32_13 y_32_14 y_32_15 y_33_1 y_33_2 y_33_3
 y_33_4 y_33_5 y_33_6 y_33_7 y_33_8 y_33_9 y_33_10 y_33_11 y_33_12 y_33_13
 y_33_14 y_33_15 y_34_1 y_34_2 y_34_3 y_34_4 y_34_5 y_34_6 y_34_7 y_34_8
 y_34_9 y_34_10 y_34_11 y_34_12 y_34_13 y_34_14 y_34_15 y_35_1 y_35_2
 y_35_3 y_35_4 y_35_5 y_35_6 y_35_7 y_35_8 y_35_9 y_35_10 y_35_11 y_35_12
 y_35_13 y_35_14 y_35_15 y_36_1 y_36_2 y_36_3 y_36_4 y_36_5 y_36_6 y_36_7
 y_36_8 y_36_9 y_36_10 y_36_11 y_36_12 y_36_13 y_36_14 y_36_15 y_37_1
 y_37_2 y_37_3 y_37_4 y_37_5 y_37_6 y_37_7 y_37_8 y_37_9 y_37_10 y_37_11
 y_37_12 y_37_13 y_37_14 y_37_15 y_38_1 y_38_2 y_38_3 y_38_4 y_38_5 y_38_6
 y_38_7 y_38_8 y_38_9 y_38_10 y_38_11 y_38_12 y_38_13 y_38_14 y_38_15
 y_39_1 y_39_2 y_39_3 y_39_4 y_39_5 y_39_6 y_39_7 y_39_8 y_39_9 y_39_10
 y_39_11 y_39_12 y_39_13 y_39_14 y_39_15 y_40_1 y_40_2 y_40_3 y_40_4 y_40_5
 y_40_6 y_40_7 y_40_8 y_40_9 y_40_10 y_40_11 y_40_12 y_40_13 y_40_14
 y_40_15 y_41_1 y_41_2 y_41_3 y_41_4 y_41_5 y_41_6 y_41_7 y_41_8 y_41_9
 y_41_10 y_41_11 y_41_12 y_41_13 y_41_14 y_41_15 y_42_1 y_42_2 y_42_3
 y_42_4 y_42_5 y_42_6 y_42_7 y_42_8 y_42_9 y_42_10 y_42_11 y_42_12 y_42_13
 y_42_14 y_42_15 y_43_1 y_43_2 y_43_3 y_43_4 y_43_5 y_43_6 y_43_7 y_43_8
 y_43_9 y_43_10 y_43_11 y_43_12 y_43_13 y_43_14 y_43_15 y_44_1 y_44_2
 y_44_3 y_44_4 y_44_5 y_44_6 y_44_7 y_44_8 y_44_9 y_44_10 y_44_11 y_44_12
 y_44_13 y_44_14 y_44_15 y_45_1 y_45_2 y_45_3 y_45_4 y_45_5 y_45_6 y_45_7
 y_45_8 y_45_9 y_45_10 y_45_11 y_45_12 y_45_13 y_45_14 y_45_15
End
